webassembly/ejemplos_dzn/3/folder3_json_18.dzn
TERM = { '.', 'in_1', 'local_0', 'in_2', 's(0)', 'in_0'};
null = '.';
s = 3;
n = 8;
ndeps = 1;
max_registers_sz = 4;
NR = 1;
registers = [|'local_0', 'in_2'|];
dependencies = [|'i32.load8_s_0', 'i32.store_1'|];
GET_ENUM = { GET1, GET2, GET3, GET4, GET5};
SET_ENUM = { SET1, SET2, SET3, SET4, SET5};
TEE_ENUM = { TEE1, TEE2, TEE3, TEE4, TEE5};
N = 2;
OP = { 'i32.load8_s_0', 'i32.store_1' };
in_ops = [1, 2 ];
out_ops = [1, 0 ];
in1 = ['in_0', 's(0)' ];
in2 = ['.', 'in_1' ];
in3 = ['.', '.' ];
out1 = ['s(0)', '.' ];
out2 = ['.', '.' ];
out3 = ['.', '.' ];
comm = [false, false ];
gas = [1, 1 ];
sz = [1, 1 ];
stor = [false, true ];
lb = [ 1, 1 ];
ub = [ 3, 3 ];
startstack = [ 'in_0', 'in_1', 'in_2', null, null, null, null, null ];
endstack = [ 'in_2', null, null, null, null, null, null, null ];
