webassembly/ejemplos_results/3/folder3_json_18.txt
value = 3;
fgas = [1, 1, 1];
fsize = [1, 1, 1];
states = 
[|   in_0, in_1, in_2, '.', '.', '.', '.', '.'
 | 's(0)', in_1, in_2, '.', '.', '.', '.', '.'
 |   in_2, in_2,  '.', '.', '.', '.', '.', '.'
 |   in_2,  '.',  '.', '.', '.', '.', '.', '.'
 |];
register_states = 
[| local_0, '.', '.', '.', '.'
 | local_0, '.', '.', '.', '.'
 | local_0, '.', '.', '.', '.'
 |    in_2, '.', '.', '.', '.'
 |];
program = [O('i32.load8_s_0'), O('i32.store_1'), S(SET1)];
% time elapsed: 0.05 s
----------
==========
% time elapsed: 0.05 s
% [value > 2]
